p edge 50 297 15
v 1 5
v 4 29 33 38 43
v 2 12 42
v 6 4 14 16 31 35 39
v 3 23 25 41
v 2 17 36
v 3 8 18 45
v 7 1 6 10 30 32 37 44
v 3 26 27 47
v 4 2 11 15 49
v 2 24 34
v 3 19 28 40
v 2 20 21
v 4 3 7 22 50
v 4 9 13 46 48
e 1 4
e 1 6
e 1 8
e 1 15
e 1 19
e 1 27
e 1 31
e 1 41
e 1 43
e 1 50
e 2 3
e 2 4
e 2 7
e 2 9
e 2 13
e 2 23
e 2 32
e 2 38
e 2 40
e 2 41
e 2 45
e 2 46
e 2 47
e 2 50
e 3 6
e 3 9
e 3 11
e 3 27
e 3 28
e 3 31
e 3 35
e 3 36
e 3 45
e 3 47
e 3 48
e 4 6
e 4 8
e 4 12
e 4 16
e 4 21
e 4 25
e 4 29
e 4 50
e 5 6
e 5 7
e 5 8
e 5 10
e 5 14
e 5 15
e 5 23
e 5 30
e 5 35
e 5 39
e 5 48
e 5 50
e 6 7
e 6 9
e 6 11
e 6 17
e 6 22
e 6 23
e 6 27
e 6 31
e 6 36
e 6 38
e 6 43
e 6 50
e 7 14
e 7 16
e 7 17
e 7 18
e 7 28
e 7 29
e 7 30
e 7 33
e 7 39
e 7 41
e 7 42
e 7 46
e 7 48
e 7 49
e 7 50
e 8 14
e 8 15
e 8 16
e 8 17
e 8 19
e 8 24
e 8 29
e 8 35
e 8 36
e 8 37
e 8 40
e 8 45
e 8 47
e 8 49
e 9 11
e 9 12
e 9 22
e 9 31
e 9 34
e 9 43
e 10 12
e 10 15
e 10 22
e 10 31
e 10 34
e 10 36
e 10 37
e 10 40
e 10 47
e 10 49
e 10 50
e 11 15
e 11 17
e 11 24
e 11 28
e 11 30
e 11 33
e 11 47
e 12 19
e 12 24
e 12 30
e 12 31
e 12 33
e 12 34
e 12 35
e 12 49
e 13 14
e 13 23
e 13 24
e 13 26
e 13 35
e 13 39
e 13 44
e 14 19
e 14 23
e 14 27
e 14 39
e 14 43
e 14 48
e 15 17
e 15 21
e 15 30
e 15 39
e 15 44
e 15 45
e 15 49
e 15 50
e 16 19
e 16 25
e 16 33
e 16 37
e 16 50
e 17 22
e 17 25
e 17 27
e 17 30
e 17 31
e 17 32
e 17 34
e 17 36
e 17 42
e 17 45
e 17 49
e 17 50
e 18 21
e 18 22
e 18 23
e 18 25
e 18 30
e 18 32
e 18 33
e 18 38
e 18 39
e 18 44
e 18 49
e 19 21
e 19 25
e 19 32
e 19 33
e 19 38
e 19 46
e 19 49
e 20 23
e 20 28
e 20 29
e 20 31
e 20 38
e 20 39
e 20 40
e 20 41
e 20 42
e 20 44
e 20 47
e 20 50
e 21 22
e 21 24
e 21 36
e 21 39
e 21 49
e 22 24
e 22 27
e 22 40
e 22 44
e 22 48
e 23 26
e 23 27
e 23 32
e 23 34
e 24 31
e 24 32
e 24 33
e 24 34
e 24 40
e 24 43
e 24 45
e 24 49
e 25 32
e 25 34
e 25 39
e 25 43
e 25 45
e 25 47
e 26 29
e 26 32
e 26 41
e 26 48
e 26 49
e 27 29
e 27 30
e 27 32
e 27 41
e 27 42
e 27 43
e 27 49
e 28 29
e 28 32
e 28 40
e 28 47
e 29 34
e 29 35
e 29 44
e 29 46
e 30 32
e 30 34
e 30 45
e 31 34
e 31 36
e 31 47
e 31 48
e 31 50
e 32 40
e 32 42
e 32 47
e 32 49
e 32 50
e 33 35
e 33 40
e 33 42
e 34 37
e 34 46
e 34 49
e 34 50
e 35 36
e 35 39
e 35 42
e 35 44
e 35 46
e 35 47
e 36 37
e 36 38
e 36 43
e 36 44
e 36 49
e 37 39
e 37 41
e 37 44
e 37 49
e 37 50
e 38 43
e 38 48
e 38 49
e 39 40
e 39 41
e 39 45
e 39 50
e 40 41
e 41 43
e 41 47
e 41 49
e 42 43
e 44 45
e 44 48
e 44 49
e 45 46
e 47 48
